c Maximum weighted clique instances generated from exactcolors.
c cutoff: 17179869.
c A clique of value > scalef (17179869) defines an improving stable sets for coloring.
p edge 125 3859
e 1 7
e 1 8
e 1 9
e 1 14
e 1 19
e 1 20
e 1 23
e 1 24
e 1 31
e 1 34
e 1 35
e 1 39
e 1 41
e 1 42
e 1 43
e 1 44
e 1 48
e 1 50
e 1 51
e 1 52
e 1 53
e 1 55
e 1 63
e 1 64
e 1 65
e 1 66
e 1 68
e 1 70
e 1 72
e 1 73
e 1 74
e 1 75
e 1 76
e 1 77
e 1 78
e 1 79
e 1 85
e 1 86
e 1 87
e 1 88
e 1 89
e 1 90
e 1 102
e 1 109
e 1 110
e 1 111
e 1 112
e 1 113
e 1 115
e 1 118
e 1 119
e 1 125
e 2 3
e 2 8
e 2 9
e 2 12
e 2 16
e 2 17
e 2 19
e 2 20
e 2 22
e 2 24
e 2 25
e 2 29
e 2 36
e 2 38
e 2 41
e 2 43
e 2 45
e 2 47
e 2 48
e 2 51
e 2 52
e 2 53
e 2 63
e 2 65
e 2 69
e 2 71
e 2 77
e 2 80
e 2 81
e 2 83
e 2 84
e 2 85
e 2 86
e 2 87
e 2 88
e 2 90
e 2 92
e 2 93
e 2 95
e 2 96
e 2 97
e 2 99
e 2 101
e 2 103
e 2 106
e 2 107
e 2 108
e 2 109
e 2 110
e 2 112
e 2 117
e 2 119
e 2 120
e 2 121
e 2 122
e 2 125
e 3 9
e 3 11
e 3 12
e 3 15
e 3 16
e 3 19
e 3 20
e 3 21
e 3 22
e 3 23
e 3 26
e 3 27
e 3 29
e 3 31
e 3 35
e 3 38
e 3 39
e 3 46
e 3 47
e 3 48
e 3 51
e 3 52
e 3 53
e 3 55
e 3 56
e 3 58
e 3 62
e 3 63
e 3 67
e 3 68
e 3 70
e 3 72
e 3 73
e 3 75
e 3 76
e 3 77
e 3 86
e 3 88
e 3 90
e 3 92
e 3 93
e 3 95
e 3 96
e 3 98
e 3 99
e 3 100
e 3 102
e 3 103
e 3 104
e 3 109
e 3 115
e 3 116
e 3 117
e 3 123
e 3 125
e 4 5
e 4 7
e 4 8
e 4 9
e 4 11
e 4 13
e 4 15
e 4 19
e 4 20
e 4 22
e 4 26
e 4 28
e 4 31
e 4 33
e 4 36
e 4 37
e 4 38
e 4 42
e 4 44
e 4 48
e 4 49
e 4 50
e 4 53
e 4 54
e 4 57
e 4 59
e 4 62
e 4 64
e 4 65
e 4 69
e 4 70
e 4 72
e 4 74
e 4 75
e 4 78
e 4 80
e 4 82
e 4 83
e 4 84
e 4 86
e 4 88
e 4 89
e 4 91
e 4 95
e 4 97
e 4 98
e 4 99
e 4 100
e 4 102
e 4 106
e 4 107
e 4 108
e 4 109
e 4 110
e 4 111
e 4 119
e 4 120
e 4 122
e 4 123
e 5 6
e 5 7
e 5 10
e 5 14
e 5 18
e 5 19
e 5 21
e 5 22
e 5 23
e 5 25
e 5 26
e 5 27
e 5 28
e 5 29
e 5 32
e 5 33
e 5 34
e 5 36
e 5 37
e 5 38
e 5 39
e 5 40
e 5 42
e 5 43
e 5 45
e 5 46
e 5 49
e 5 50
e 5 52
e 5 53
e 5 56
e 5 57
e 5 58
e 5 60
e 5 63
e 5 64
e 5 68
e 5 69
e 5 70
e 5 72
e 5 73
e 5 74
e 5 75
e 5 80
e 5 81
e 5 82
e 5 83
e 5 85
e 5 89
e 5 90
e 5 94
e 5 95
e 5 97
e 5 99
e 5 105
e 5 108
e 5 110
e 5 113
e 5 114
e 5 115
e 5 116
e 5 117
e 5 118
e 5 119
e 5 121
e 5 122
e 5 123
e 5 124
e 6 8
e 6 9
e 6 12
e 6 13
e 6 14
e 6 15
e 6 16
e 6 20
e 6 22
e 6 24
e 6 25
e 6 27
e 6 30
e 6 31
e 6 32
e 6 33
e 6 35
e 6 39
e 6 40
e 6 41
e 6 43
e 6 45
e 6 50
e 6 57
e 6 62
e 6 63
e 6 64
e 6 68
e 6 69
e 6 70
e 6 71
e 6 73
e 6 74
e 6 76
e 6 77
e 6 78
e 6 79
e 6 83
e 6 86
e 6 87
e 6 88
e 6 93
e 6 94
e 6 97
e 6 102
e 6 104
e 6 105
e 6 107
e 6 108
e 6 109
e 6 113
e 6 115
e 6 117
e 6 118
e 6 122
e 6 124
e 7 8
e 7 9
e 7 11
e 7 13
e 7 15
e 7 16
e 7 17
e 7 22
e 7 23
e 7 27
e 7 28
e 7 29
e 7 30
e 7 33
e 7 34
e 7 41
e 7 42
e 7 48
e 7 49
e 7 53
e 7 54
e 7 55
e 7 56
e 7 60
e 7 62
e 7 64
e 7 66
e 7 69
e 7 70
e 7 71
e 7 73
e 7 74
e 7 75
e 7 76
e 7 77
e 7 80
e 7 84
e 7 85
e 7 88
e 7 89
e 7 90
e 7 91
e 7 97
e 7 98
e 7 101
e 7 102
e 7 103
e 7 104
e 7 105
e 7 107
e 7 108
e 7 109
e 7 112
e 7 114
e 7 116
e 7 117
e 7 119
e 7 123
e 7 124
e 7 125
e 8 9
e 8 19
e 8 20
e 8 22
e 8 23
e 8 25
e 8 27
e 8 28
e 8 30
e 8 31
e 8 32
e 8 34
e 8 37
e 8 39
e 8 40
e 8 41
e 8 42
e 8 44
e 8 46
e 8 47
e 8 49
e 8 51
e 8 52
e 8 53
e 8 55
e 8 57
e 8 60
e 8 62
e 8 63
e 8 65
e 8 66
e 8 67
e 8 68
e 8 70
e 8 71
e 8 79
e 8 81
e 8 87
e 8 88
e 8 89
e 8 91
e 8 92
e 8 93
e 8 94
e 8 97
e 8 98
e 8 102
e 8 103
e 8 106
e 8 108
e 8 110
e 8 111
e 8 112
e 8 113
e 8 115
e 8 119
e 8 120
e 8 121
e 8 123
e 8 124
e 9 10
e 9 14
e 9 15
e 9 18
e 9 19
e 9 20
e 9 26
e 9 28
e 9 29
e 9 30
e 9 31
e 9 33
e 9 36
e 9 39
e 9 41
e 9 42
e 9 43
e 9 44
e 9 45
e 9 48
e 9 53
e 9 58
e 9 60
e 9 61
e 9 62
e 9 63
e 9 68
e 9 70
e 9 76
e 9 79
e 9 80
e 9 89
e 9 91
e 9 92
e 9 93
e 9 94
e 9 95
e 9 97
e 9 98
e 9 99
e 9 101
e 9 102
e 9 103
e 9 104
e 9 105
e 9 109
e 9 110
e 9 112
e 9 113
e 9 114
e 9 115
e 9 116
e 9 120
e 9 121
e 9 124
e 9 125
e 10 11
e 10 12
e 10 13
e 10 18
e 10 20
e 10 22
e 10 23
e 10 24
e 10 32
e 10 34
e 10 35
e 10 39
e 10 42
e 10 43
e 10 46
e 10 47
e 10 49
e 10 51
e 10 52
e 10 53
e 10 54
e 10 55
e 10 56
e 10 57
e 10 59
e 10 61
e 10 62
e 10 63
e 10 65
e 10 69
e 10 70
e 10 73
e 10 75
e 10 76
e 10 77
e 10 78
e 10 80
e 10 82
e 10 83
e 10 86
e 10 90
e 10 93
e 10 98
e 10 99
e 10 100
e 10 104
e 10 106
e 10 107
e 10 111
e 10 112
e 10 113
e 10 114
e 10 115
e 10 122
e 10 124
e 11 14
e 11 15
e 11 16
e 11 17
e 11 18
e 11 19
e 11 21
e 11 24
e 11 26
e 11 27
e 11 29
e 11 33
e 11 35
e 11 36
e 11 38
e 11 39
e 11 42
e 11 44
e 11 47
e 11 50
e 11 51
e 11 53
e 11 56
e 11 60
e 11 63
e 11 64
e 11 65
e 11 66
e 11 69
e 11 70
e 11 72
e 11 74
e 11 76
e 11 77
e 11 78
e 11 80
e 11 81
e 11 84
e 11 92
e 11 94
e 11 95
e 11 96
e 11 97
e 11 98
e 11 100
e 11 101
e 11 106
e 11 107
e 11 109
e 11 110
e 11 111
e 11 115
e 11 116
e 11 117
e 11 118
e 11 120
e 11 121
e 11 124
e 11 125
e 12 14
e 12 16
e 12 19
e 12 22
e 12 23
e 12 25
e 12 27
e 12 28
e 12 29
e 12 31
e 12 35
e 12 37
e 12 38
e 12 40
e 12 42
e 12 44
e 12 47
e 12 49
e 12 52
e 12 55
e 12 56
e 12 58
e 12 60
e 12 61
e 12 66
e 12 67
e 12 68
e 12 69
e 12 70
e 12 71
e 12 73
e 12 78
e 12 80
e 12 82
e 12 83
e 12 84
e 12 86
e 12 88
e 12 91
e 12 93
e 12 94
e 12 95
e 12 96
e 12 99
e 12 100
e 12 101
e 12 102
e 12 106
e 12 107
e 12 110
e 12 111
e 12 114
e 12 115
e 12 117
e 12 118
e 12 120
e 12 124
e 13 14
e 13 19
e 13 23
e 13 26
e 13 27
e 13 28
e 13 30
e 13 31
e 13 32
e 13 34
e 13 37
e 13 38
e 13 40
e 13 42
e 13 44
e 13 45
e 13 46
e 13 49
e 13 51
e 13 52
e 13 53
e 13 55
e 13 56
e 13 57
e 13 58
e 13 61
e 13 62
e 13 66
e 13 67
e 13 68
e 13 71
e 13 72
e 13 73
e 13 77
e 13 79
e 13 80
e 13 82
e 13 86
e 13 90
e 13 91
e 13 92
e 13 95
e 13 96
e 13 97
e 13 101
e 13 104
e 13 105
e 13 106
e 13 109
e 13 111
e 13 114
e 13 118
e 13 119
e 13 122
e 13 124
e 13 125
e 14 15
e 14 16
e 14 17
e 14 18
e 14 19
e 14 21
e 14 22
e 14 23
e 14 25
e 14 26
e 14 27
e 14 28
e 14 30
e 14 32
e 14 33
e 14 34
e 14 36
e 14 41
e 14 45
e 14 49
e 14 52
e 14 53
e 14 54
e 14 56
e 14 58
e 14 59
e 14 60
e 14 62
e 14 63
e 14 68
e 14 69
e 14 73
e 14 76
e 14 80
e 14 81
e 14 82
e 14 83
e 14 85
e 14 86
e 14 87
e 14 88
e 14 92
e 14 96
e 14 99
e 14 101
e 14 102
e 14 103
e 14 106
e 14 107
e 14 108
e 14 110
e 14 111
e 14 113
e 14 115
e 14 116
e 14 117
e 14 122
e 15 16
e 15 20
e 15 23
e 15 24
e 15 25
e 15 27
e 15 28
e 15 32
e 15 34
e 15 35
e 15 38
e 15 39
e 15 40
e 15 42
e 15 44
e 15 45
e 15 46
e 15 48
e 15 49
e 15 50
e 15 53
e 15 56
e 15 58
e 15 60
e 15 61
e 15 62
e 15 64
e 15 68
e 15 69
e 15 71
e 15 72
e 15 73
e 15 76
e 15 79
e 15 80
e 15 84
e 15 85
e 15 87
e 15 88
e 15 90
e 15 91
e 15 95
e 15 96
e 15 97
e 15 99
e 15 101
e 15 102
e 15 107
e 15 108
e 15 111
e 15 112
e 15 113
e 15 116
e 15 118
e 15 119
e 15 121
e 15 123
e 16 18
e 16 20
e 16 28
e 16 32
e 16 35
e 16 40
e 16 41
e 16 43
e 16 44
e 16 46
e 16 47
e 16 49
e 16 50
e 16 52
e 16 56
e 16 61
e 16 62
e 16 63
e 16 64
e 16 66
e 16 67
e 16 68
e 16 70
e 16 71
e 16 72
e 16 74
e 16 75
e 16 77
e 16 78
e 16 79
e 16 82
e 16 88
e 16 90
e 16 92
e 16 93
e 16 94
e 16 95
e 16 97
e 16 98
e 16 103
e 16 104
e 16 106
e 16 107
e 16 108
e 16 109
e 16 110
e 16 111
e 16 113
e 16 114
e 16 116
e 16 117
e 16 121
e 16 124
e 16 125
e 17 18
e 17 19
e 17 21
e 17 24
e 17 28
e 17 31
e 17 33
e 17 37
e 17 38
e 17 40
e 17 41
e 17 42
e 17 44
e 17 45
e 17 46
e 17 48
e 17 49
e 17 51
e 17 52
e 17 53
e 17 54
e 17 55
e 17 59
e 17 60
e 17 63
e 17 66
e 17 70
e 17 71
e 17 72
e 17 80
e 17 81
e 17 83
e 17 86
e 17 87
e 17 88
e 17 89
e 17 92
e 17 94
e 17 95
e 17 96
e 17 99
e 17 101
e 17 107
e 17 113
e 17 119
e 17 121
e 17 122
e 17 123
e 17 125
e 18 24
e 18 29
e 18 33
e 18 34
e 18 37
e 18 38
e 18 40
e 18 41
e 18 42
e 18 44
e 18 47
e 18 49
e 18 52
e 18 53
e 18 56
e 18 58
e 18 61
e 18 63
e 18 65
e 18 66
e 18 68
e 18 69
e 18 70
e 18 71
e 18 75
e 18 78
e 18 80
e 18 82
e 18 83
e 18 90
e 18 95
e 18 96
e 18 98
e 18 102
e 18 108
e 18 109
e 18 110
e 18 111
e 18 113
e 18 115
e 18 118
e 18 122
e 18 123
e 18 124
e 19 21
e 19 25
e 19 28
e 19 29
e 19 30
e 19 32
e 19 36
e 19 42
e 19 43
e 19 44
e 19 46
e 19 47
e 19 48
e 19 50
e 19 51
e 19 54
e 19 55
e 19 57
e 19 58
e 19 62
e 19 63
e 19 67
e 19 68
e 19 70
e 19 71
e 19 75
e 19 76
e 19 77
e 19 78
e 19 85
e 19 86
e 19 89
e 19 91
e 19 94
e 19 95
e 19 96
e 19 99
e 19 105
e 19 106
e 19 109
e 19 110
e 19 111
e 19 113
e 19 114
e 19 118
e 19 122
e 19 123
e 20 21
e 20 22
e 20 28
e 20 29
e 20 32
e 20 33
e 20 35
e 20 36
e 20 37
e 20 38
e 20 39
e 20 40
e 20 46
e 20 48
e 20 49
e 20 53
e 20 54
e 20 55
e 20 57
e 20 58
e 20 59
e 20 61
e 20 63
e 20 64
e 20 65
e 20 71
e 20 72
e 20 73
e 20 74
e 20 77
e 20 78
e 20 80
e 20 81
e 20 85
e 20 86
e 20 88
e 20 89
e 20 91
e 20 93
e 20 94
e 20 96
e 20 97
e 20 98
e 20 99
e 20 103
e 20 104
e 20 105
e 20 106
e 20 107
e 20 109
e 20 111
e 20 112
e 20 113
e 20 119
e 20 122
e 20 123
e 21 23
e 21 25
e 21 28
e 21 30
e 21 32
e 21 34
e 21 35
e 21 36
e 21 39
e 21 42
e 21 43
e 21 49
e 21 50
e 21 56
e 21 57
e 21 59
e 21 67
e 21 68
e 21 69
e 21 70
e 21 72
e 21 73
e 21 76
e 21 77
e 21 80
e 21 82
e 21 84
e 21 86
e 21 89
e 21 90
e 21 92
e 21 94
e 21 95
e 21 96
e 21 97
e 21 99
e 21 101
e 21 102
e 21 103
e 21 105
e 21 106
e 21 107
e 21 108
e 21 109
e 21 111
e 21 112
e 21 115
e 21 117
e 21 119
e 21 121
e 21 124
e 21 125
e 22 26
e 22 27
e 22 30
e 22 31
e 22 32
e 22 35
e 22 39
e 22 40
e 22 42
e 22 43
e 22 44
e 22 46
e 22 48
e 22 51
e 22 52
e 22 53
e 22 54
e 22 59
e 22 66
e 22 67
e 22 68
e 22 70
e 22 71
e 22 72
e 22 75
e 22 77
e 22 78
e 22 80
e 22 81
e 22 82
e 22 83
e 22 84
e 22 86
e 22 88
e 22 89
e 22 92
e 22 93
e 22 94
e 22 101
e 22 106
e 22 107
e 22 109
e 22 112
e 22 113
e 22 114
e 22 117
e 22 118
e 22 119
e 22 121
e 22 122
e 22 123
e 22 124
e 22 125
e 23 32
e 23 33
e 23 34
e 23 36
e 23 37
e 23 39
e 23 40
e 23 41
e 23 42
e 23 48
e 23 50
e 23 52
e 23 53
e 23 57
e 23 60
e 23 62
e 23 63
e 23 64
e 23 69
e 23 74
e 23 75
e 23 77
e 23 79
e 23 81
e 23 83
e 23 84
e 23 85
e 23 86
e 23 89
e 23 90
e 23 91
e 23 92
e 23 93
e 23 95
e 23 100
e 23 101
e 23 102
e 23 104
e 23 108
e 23 109
e 23 112
e 23 114
e 23 117
e 23 118
e 23 120
e 23 121
e 23 124
e 24 27
e 24 30
e 24 31
e 24 32
e 24 36
e 24 37
e 24 39
e 24 40
e 24 46
e 24 52
e 24 53
e 24 57
e 24 59
e 24 60
e 24 61
e 24 64
e 24 65
e 24 71
e 24 73
e 24 75
e 24 77
e 24 81
e 24 83
e 24 84
e 24 85
e 24 86
e 24 89
e 24 90
e 24 92
e 24 94
e 24 97
e 24 103
e 24 107
e 24 108
e 24 112
e 24 115
e 24 117
e 24 120
e 24 121
e 24 122
e 24 124
e 25 28
e 25 33
e 25 36
e 25 38
e 25 41
e 25 45
e 25 47
e 25 50
e 25 51
e 25 54
e 25 56
e 25 57
e 25 58
e 25 59
e 25 62
e 25 63
e 25 66
e 25 68
e 25 69
e 25 70
e 25 71
e 25 72
e 25 74
e 25 75
e 25 76
e 25 77
e 25 78
e 25 80
e 25 82
e 25 83
e 25 87
e 25 88
e 25 90
e 25 91
e 25 92
e 25 94
e 25 96
e 25 97
e 25 98
e 25 100
e 25 101
e 25 102
e 25 107
e 25 109
e 25 111
e 25 112
e 25 113
e 25 114
e 25 115
e 25 116
e 25 117
e 25 120
e 25 122
e 25 123
e 26 27
e 26 29
e 26 31
e 26 32
e 26 35
e 26 37
e 26 39
e 26 49
e 26 51
e 26 56
e 26 65
e 26 67
e 26 71
e 26 72
e 26 73
e 26 74
e 26 75
e 26 77
e 26 79
e 26 80
e 26 81
e 26 82
e 26 84
e 26 89
e 26 91
e 26 92
e 26 93
e 26 96
e 26 98
e 26 102
e 26 104
e 26 106
e 26 107
e 26 110
e 26 111
e 26 112
e 26 115
e 26 116
e 26 117
e 26 118
e 26 120
e 26 124
e 27 28
e 27 31
e 27 32
e 27 34
e 27 36
e 27 37
e 27 38
e 27 41
e 27 42
e 27 43
e 27 44
e 27 46
e 27 48
e 27 49
e 27 50
e 27 53
e 27 55
e 27 56
e 27 57
e 27 58
e 27 60
e 27 61
e 27 62
e 27 64
e 27 65
e 27 67
e 27 68
e 27 70
e 27 74
e 27 77
e 27 81
e 27 82
e 27 85
e 27 86
e 27 88
e 27 90
e 27 91
e 27 93
e 27 94
e 27 97
e 27 100
e 27 101
e 27 102
e 27 105
e 27 106
e 27 108
e 27 110
e 27 111
e 27 112
e 27 117
e 27 119
e 27 120
e 27 123
e 27 124
e 27 125
e 28 31
e 28 35
e 28 37
e 28 40
e 28 41
e 28 43
e 28 46
e 28 48
e 28 49
e 28 51
e 28 53
e 28 60
e 28 61
e 28 62
e 28 63
e 28 64
e 28 68
e 28 73
e 28 76
e 28 77
e 28 78
e 28 80
e 28 82
e 28 84
e 28 85
e 28 91
e 28 93
e 28 96
e 28 99
e 28 100
e 28 103
e 28 107
e 28 108
e 28 109
e 28 110
e 28 111
e 28 113
e 28 116
e 28 122
e 28 124
e 29 30
e 29 34
e 29 35
e 29 36
e 29 37
e 29 39
e 29 41
e 29 42
e 29 43
e 29 45
e 29 48
e 29 49
e 29 50
e 29 51
e 29 53
e 29 54
e 29 56
e 29 61
e 29 64
e 29 65
e 29 67
e 29 68
e 29 71
e 29 72
e 29 73
e 29 75
e 29 77
e 29 80
e 29 81
e 29 82
e 29 83
e 29 85
e 29 86
e 29 87
e 29 89
e 29 90
e 29 97
e 29 98
e 29 100
e 29 102
e 29 103
e 29 104
e 29 105
e 29 106
e 29 107
e 29 108
e 29 109
e 29 110
e 29 111
e 29 112
e 29 113
e 29 117
e 29 120
e 29 121
e 29 123
e 29 125
e 30 31
e 30 32
e 30 33
e 30 34
e 30 39
e 30 40
e 30 42
e 30 43
e 30 44
e 30 47
e 30 48
e 30 50
e 30 51
e 30 54
e 30 55
e 30 56
e 30 57
e 30 59
e 30 60
e 30 61
e 30 64
e 30 66
e 30 67
e 30 69
e 30 72
e 30 78
e 30 80
e 30 81
e 30 82
e 30 83
e 30 84
e 30 86
e 30 89
e 30 90
e 30 91
e 30 92
e 30 94
e 30 100
e 30 101
e 30 103
e 30 106
e 30 115
e 30 116
e 30 119
e 30 120
e 30 121
e 30 122
e 30 123
e 30 125
e 31 32
e 31 33
e 31 34
e 31 35
e 31 39
e 31 40
e 31 42
e 31 44
e 31 47
e 31 49
e 31 51
e 31 52
e 31 53
e 31 55
e 31 56
e 31 57
e 31 60
e 31 67
e 31 69
e 31 71
e 31 72
e 31 75
e 31 76
e 31 78
e 31 80
e 31 82
e 31 85
e 31 89
e 31 90
e 31 91
e 31 92
e 31 93
e 31 95
e 31 96
e 31 97
e 31 99
e 31 103
e 31 105
e 31 107
e 31 108
e 31 109
e 31 110
e 31 111
e 31 114
e 31 116
e 31 117
e 31 118
e 31 119
e 31 122
e 31 123
e 31 124
e 31 125
e 32 34
e 32 39
e 32 40
e 32 41
e 32 42
e 32 44
e 32 45
e 32 46
e 32 49
e 32 50
e 32 51
e 32 54
e 32 56
e 32 57
e 32 58
e 32 60
e 32 61
e 32 65
e 32 69
e 32 70
e 32 73
e 32 74
e 32 76
e 32 77
e 32 79
e 32 80
e 32 81
e 32 82
e 32 85
e 32 86
e 32 87
e 32 88
e 32 89
e 32 90
e 32 91
e 32 92
e 32 95
e 32 96
e 32 97
e 32 100
e 32 102
e 32 103
e 32 104
e 32 111
e 32 116
e 32 117
e 32 120
e 32 122
e 32 124
e 32 125
e 33 35
e 33 38
e 33 39
e 33 44
e 33 50
e 33 53
e 33 55
e 33 56
e 33 57
e 33 59
e 33 60
e 33 63
e 33 64
e 33 67
e 33 69
e 33 70
e 33 71
e 33 73
e 33 74
e 33 75
e 33 76
e 33 81
e 33 87
e 33 91
e 33 93
e 33 94
e 33 101
e 33 104
e 33 107
e 33 112
e 33 113
e 33 116
e 33 120
e 33 121
e 33 122
e 33 123
e 33 125
e 34 37
e 34 38
e 34 39
e 34 40
e 34 41
e 34 43
e 34 45
e 34 51
e 34 54
e 34 60
e 34 61
e 34 63
e 34 64
e 34 65
e 34 66
e 34 68
e 34 69
e 34 71
e 34 74
e 34 75
e 34 77
e 34 78
e 34 79
e 34 80
e 34 81
e 34 82
e 34 83
e 34 88
e 34 89
e 34 94
e 34 97
e 34 98
e 34 101
e 34 103
e 34 104
e 34 105
e 34 106
e 34 107
e 34 109
e 34 112
e 34 113
e 34 117
e 34 118
e 34 121
e 34 122
e 34 124
e 35 36
e 35 37
e 35 40
e 35 42
e 35 43
e 35 47
e 35 48
e 35 49
e 35 50
e 35 51
e 35 52
e 35 54
e 35 57
e 35 59
e 35 61
e 35 64
e 35 65
e 35 66
e 35 68
e 35 70
e 35 74
e 35 75
e 35 81
e 35 82
e 35 88
e 35 89
e 35 90
e 35 91
e 35 93
e 35 94
e 35 101
e 35 102
e 35 105
e 35 107
e 35 108
e 35 109
e 35 110
e 35 111
e 35 114
e 35 117
e 35 118
e 35 119
e 35 120
e 35 122
e 35 123
e 35 124
e 36 38
e 36 39
e 36 40
e 36 41
e 36 43
e 36 45
e 36 46
e 36 51
e 36 52
e 36 54
e 36 59
e 36 60
e 36 61
e 36 62
e 36 64
e 36 65
e 36 70
e 36 71
e 36 76
e 36 77
e 36 78
e 36 79
e 36 83
e 36 84
e 36 86
e 36 87
e 36 89
e 36 90
e 36 91
e 36 92
e 36 94
e 36 95
e 36 98
e 36 100
e 36 106
e 36 109
e 36 111
e 36 117
e 36 118
e 36 119
e 36 120
e 36 123
e 36 124
e 36 125
e 37 38
e 37 39
e 37 41
e 37 42
e 37 44
e 37 47
e 37 49
e 37 50
e 37 51
e 37 52
e 37 53
e 37 55
e 37 57
e 37 59
e 37 60
e 37 61
e 37 62
e 37 64
e 37 66
e 37 69
e 37 70
e 37 73
e 37 76
e 37 77
e 37 79
e 37 81
e 37 84
e 37 86
e 37 87
e 37 89
e 37 90
e 37 91
e 37 92
e 37 94
e 37 95
e 37 98
e 37 101
e 37 104
e 37 105
e 37 106
e 37 107
e 37 111
e 37 112
e 37 114
e 37 115
e 37 117
e 37 124
e 37 125
e 38 39
e 38 41
e 38 46
e 38 47
e 38 48
e 38 50
e 38 53
e 38 56
e 38 58
e 38 61
e 38 65
e 38 67
e 38 72
e 38 73
e 38 74
e 38 75
e 38 79
e 38 80
e 38 81
e 38 82
e 38 83
e 38 85
e 38 88
e 38 90
e 38 93
e 38 96
e 38 97
e 38 98
e 38 99
e 38 103
e 38 104
e 38 107
e 38 108
e 38 109
e 38 110
e 38 112
e 38 115
e 38 116
e 38 117
e 38 119
e 38 121
e 38 122
e 38 124
e 39 40
e 39 41
e 39 42
e 39 46
e 39 47
e 39 49
e 39 50
e 39 53
e 39 55
e 39 59
e 39 61
e 39 64
e 39 70
e 39 71
e 39 74
e 39 76
e 39 79
e 39 80
e 39 81
e 39 82
e 39 83
e 39 84
e 39 85
e 39 87
e 39 88
e 39 90
e 39 91
e 39 92
e 39 93
e 39 94
e 39 95
e 39 96
e 39 97
e 39 102
e 39 105
e 39 107
e 39 108
e 39 109
e 39 112
e 39 115
e 39 116
e 39 118
e 39 121
e 39 122
e 39 123
e 39 125
e 40 43
e 40 46
e 40 47
e 40 50
e 40 54
e 40 55
e 40 57
e 40 61
e 40 65
e 40 66
e 40 69
e 40 72
e 40 74
e 40 75
e 40 80
e 40 81
e 40 82
e 40 85
e 40 97
e 40 98
e 40 99
e 40 102
e 40 103
e 40 104
e 40 105
e 40 107
e 40 108
e 40 109
e 40 112
e 40 113
e 40 114
e 40 119
e 40 120
e 40 122
e 40 125
e 41 42
e 41 43
e 41 46
e 41 47
e 41 48
e 41 49
e 41 51
e 41 52
e 41 54
e 41 55
e 41 56
e 41 60
e 41 62
e 41 64
e 41 65
e 41 66
e 41 67
e 41 68
e 41 69
e 41 70
e 41 71
e 41 72
e 41 73
e 41 77
e 41 78
e 41 79
e 41 80
e 41 81
e 41 83
e 41 84
e 41 85
e 41 88
e 41 89
e 41 91
e 41 92
e 41 94
e 41 96
e 41 97
e 41 99
e 41 101
e 41 102
e 41 103
e 41 104
e 41 106
e 41 108
e 41 110
e 41 114
e 41 117
e 41 124
e 42 43
e 42 45
e 42 46
e 42 48
e 42 54
e 42 58
e 42 59
e 42 61
e 42 65
e 42 68
e 42 69
e 42 71
e 42 73
e 42 74
e 42 78
e 42 80
e 42 85
e 42 88
e 42 89
e 42 90
e 42 92
e 42 93
e 42 94
e 42 96
e 42 100
e 42 101
e 42 103
e 42 104
e 42 105
e 42 107
e 42 108
e 42 109
e 42 111
e 42 112
e 42 113
e 42 114
e 42 116
e 42 118
e 42 119
e 42 120
e 42 121
e 42 124
e 43 46
e 43 47
e 43 48
e 43 49
e 43 51
e 43 52
e 43 54
e 43 55
e 43 59
e 43 61
e 43 62
e 43 63
e 43 64
e 43 67
e 43 69
e 43 70
e 43 71
e 43 72
e 43 73
e 43 74
e 43 77
e 43 80
e 43 81
e 43 82
e 43 85
e 43 86
e 43 87
e 43 89
e 43 90
e 43 92
e 43 93
e 43 94
e 43 95
e 43 96
e 43 98
e 43 100
e 43 101
e 43 103
e 43 105
e 43 111
e 43 113
e 43 115
e 43 117
e 43 118
e 43 120
e 43 122
e 43 123
e 44 46
e 44 47
e 44 48
e 44 49
e 44 54
e 44 55
e 44 59
e 44 62
e 44 63
e 44 66
e 44 67
e 44 68
e 44 73
e 44 74
e 44 75
e 44 76
e 44 77
e 44 79
e 44 81
e 44 84
e 44 85
e 44 86
e 44 88
e 44 89
e 44 90
e 44 95
e 44 96
e 44 97
e 44 99
e 44 102
e 44 103
e 44 105
e 44 106
e 44 108
e 44 109
e 44 114
e 44 116
e 44 118
e 44 119
e 44 120
e 44 124
e 44 125
e 45 46
e 45 47
e 45 49
e 45 50
e 45 52
e 45 53
e 45 55
e 45 57
e 45 58
e 45 60
e 45 64
e 45 65
e 45 69
e 45 75
e 45 76
e 45 77
e 45 79
e 45 85
e 45 86
e 45 87
e 45 88
e 45 89
e 45 90
e 45 91
e 45 95
e 45 97
e 45 98
e 45 99
e 45 100
e 45 101
e 45 102
e 45 104
e 45 105
e 45 106
e 45 107
e 45 108
e 45 109
e 45 110
e 45 113
e 45 115
e 45 116
e 45 120
e 45 121
e 45 123
e 45 124
e 45 125
e 46 49
e 46 50
e 46 55
e 46 57
e 46 62
e 46 63
e 46 66
e 46 67
e 46 69
e 46 70
e 46 72
e 46 75
e 46 76
e 46 77
e 46 81
e 46 83
e 46 87
e 46 88
e 46 89
e 46 92
e 46 93
e 46 96
e 46 97
e 46 98
e 46 99
e 46 101
e 46 102
e 46 103
e 46 104
e 46 109
e 46 116
e 46 119
e 46 121
e 46 122
e 46 124
e 47 48
e 47 50
e 47 56
e 47 58
e 47 60
e 47 65
e 47 66
e 47 68
e 47 71
e 47 72
e 47 74
e 47 75
e 47 76
e 47 80
e 47 83
e 47 84
e 47 86
e 47 88
e 47 90
e 47 92
e 47 93
e 47 95
e 47 99
e 47 101
e 47 107
e 47 109
e 47 110
e 47 111
e 47 112
e 47 114
e 47 116
e 47 117
e 47 119
e 47 121
e 47 122
e 47 125
e 48 53
e 48 55
e 48 59
e 48 61
e 48 62
e 48 72
e 48 73
e 48 75
e 48 76
e 48 80
e 48 81
e 48 85
e 48 86
e 48 87
e 48 89
e 48 93
e 48 98
e 48 100
e 48 101
e 48 103
e 48 104
e 48 106
e 48 109
e 48 110
e 48 112
e 48 116
e 48 117
e 48 119
e 48 120
e 48 122
e 48 124
e 49 51
e 49 55
e 49 56
e 49 58
e 49 60
e 49 64
e 49 65
e 49 66
e 49 69
e 49 70
e 49 73
e 49 75
e 49 76
e 49 81
e 49 84
e 49 86
e 49 88
e 49 90
e 49 91
e 49 94
e 49 95
e 49 99
e 49 100
e 49 101
e 49 104
e 49 105
e 49 110
e 49 111
e 49 113
e 49 114
e 49 117
e 49 118
e 49 119
e 49 120
e 49 121
e 50 52
e 50 56
e 50 58
e 50 62
e 50 64
e 50 66
e 50 68
e 50 69
e 50 70
e 50 71
e 50 72
e 50 76
e 50 77
e 50 78
e 50 81
e 50 82
e 50 84
e 50 86
e 50 87
e 50 88
e 50 90
e 50 93
e 50 95
e 50 96
e 50 97
e 50 98
e 50 101
e 50 102
e 50 103
e 50 105
e 50 106
e 50 108
e 50 110
e 50 111
e 50 112
e 50 115
e 50 120
e 50 121
e 50 124
e 50 125
e 51 52
e 51 53
e 51 54
e 51 57
e 51 60
e 51 68
e 51 69
e 51 71
e 51 72
e 51 76
e 51 78
e 51 83
e 51 86
e 51 87
e 51 88
e 51 90
e 51 92
e 51 94
e 51 97
e 51 98
e 51 103
e 51 104
e 51 105
e 51 106
e 51 107
e 51 111
e 51 112
e 51 116
e 51 118
e 51 120
e 51 121
e 51 123
e 51 124
e 51 125
e 52 54
e 52 55
e 52 58
e 52 59
e 52 60
e 52 61
e 52 62
e 52 63
e 52 66
e 52 67
e 52 68
e 52 69
e 52 70
e 52 75
e 52 76
e 52 79
e 52 80
e 52 82
e 52 83
e 52 84
e 52 86
e 52 87
e 52 89
e 52 92
e 52 93
e 52 94
e 52 96
e 52 100
e 52 102
e 52 103
e 52 104
e 52 105
e 52 107
e 52 108
e 52 116
e 52 117
e 52 118
e 52 119
e 52 121
e 52 123
e 53 54
e 53 55
e 53 57
e 53 61
e 53 62
e 53 63
e 53 65
e 53 67
e 53 69
e 53 72
e 53 73
e 53 75
e 53 76
e 53 77
e 53 78
e 53 80
e 53 83
e 53 84
e 53 85
e 53 90
e 53 91
e 53 92
e 53 95
e 53 96
e 53 98
e 53 100
e 53 102
e 53 104
e 53 106
e 53 107
e 53 110
e 53 113
e 53 114
e 53 117
e 53 118
e 53 125
e 54 58
e 54 63
e 54 64
e 54 66
e 54 67
e 54 68
e 54 73
e 54 75
e 54 77
e 54 78
e 54 86
e 54 87
e 54 88
e 54 91
e 54 93
e 54 100
e 54 101
e 54 104
e 54 106
e 54 107
e 54 109
e 54 111
e 54 112
e 54 113
e 54 115
e 54 116
e 54 118
e 54 119
e 55 56
e 55 58
e 55 59
e 55 60
e 55 63
e 55 64
e 55 67
e 55 68
e 55 69
e 55 71
e 55 75
e 55 76
e 55 78
e 55 79
e 55 81
e 55 83
e 55 84
e 55 88
e 55 89
e 55 91
e 55 92
e 55 95
e 55 96
e 55 98
e 55 99
e 55 103
e 55 104
e 55 105
e 55 108
e 55 109
e 55 112
e 55 113
e 55 116
e 55 117
e 55 119
e 55 120
e 55 122
e 55 123
e 55 124
e 56 59
e 56 63
e 56 67
e 56 69
e 56 70
e 56 72
e 56 73
e 56 74
e 56 77
e 56 78
e 56 79
e 56 82
e 56 85
e 56 86
e 56 88
e 56 89
e 56 91
e 56 92
e 56 94
e 56 97
e 56 98
e 56 101
e 56 102
e 56 103
e 56 105
e 56 108
e 56 109
e 56 113
e 56 115
e 56 122
e 56 124
e 57 58
e 57 59
e 57 60
e 57 63
e 57 66
e 57 67
e 57 68
e 57 69
e 57 71
e 57 74
e 57 75
e 57 79
e 57 80
e 57 82
e 57 84
e 57 85
e 57 86
e 57 87
e 57 88
e 57 91
e 57 95
e 57 97
e 57 98
e 57 102
e 57 107
e 57 108
e 57 110
e 57 113
e 57 115
e 57 116
e 57 117
e 57 122
e 57 125
e 58 59
e 58 61
e 58 62
e 58 63
e 58 65
e 58 70
e 58 72
e 58 73
e 58 75
e 58 77
e 58 81
e 58 83
e 58 84
e 58 88
e 58 90
e 58 91
e 58 92
e 58 93
e 58 94
e 58 99
e 58 101
e 58 102
e 58 106
e 58 110
e 58 111
e 58 113
e 58 115
e 58 117
e 58 118
e 58 119
e 58 120
e 58 123
e 59 60
e 59 62
e 59 63
e 59 66
e 59 67
e 59 68
e 59 72
e 59 73
e 59 76
e 59 77
e 59 78
e 59 84
e 59 85
e 59 86
e 59 92
e 59 95
e 59 96
e 59 101
e 59 102
e 59 104
e 59 105
e 59 107
e 59 109
e 59 111
e 59 113
e 59 115
e 59 116
e 59 119
e 59 120
e 59 123
e 59 124
e 60 62
e 60 64
e 60 66
e 60 67
e 60 68
e 60 70
e 60 71
e 60 72
e 60 73
e 60 74
e 60 83
e 60 84
e 60 86
e 60 87
e 60 88
e 60 90
e 60 92
e 60 95
e 60 105
e 60 106
e 60 107
e 60 108
e 60 110
e 60 112
e 60 113
e 60 114
e 60 116
e 60 118
e 60 119
e 60 120
e 60 121
e 61 62
e 61 63
e 61 64
e 61 66
e 61 69
e 61 70
e 61 71
e 61 72
e 61 74
e 61 75
e 61 77
e 61 78
e 61 79
e 61 80
e 61 81
e 61 83
e 61 86
e 61 88
e 61 90
e 61 92
e 61 93
e 61 94
e 61 96
e 61 99
e 61 100
e 61 101
e 61 103
e 61 104
e 61 105
e 61 108
e 61 111
e 61 116
e 61 118
e 61 120
e 61 121
e 61 124
e 62 63
e 62 64
e 62 66
e 62 67
e 62 68
e 62 69
e 62 70
e 62 71
e 62 72
e 62 76
e 62 79
e 62 80
e 62 81
e 62 84
e 62 85
e 62 88
e 62 89
e 62 94
e 62 95
e 62 97
e 62 98
e 62 99
e 62 100
e 62 102
e 62 103
e 62 104
e 62 105
e 62 106
e 62 107
e 62 111
e 62 112
e 62 113
e 62 115
e 62 119
e 63 66
e 63 68
e 63 69
e 63 71
e 63 72
e 63 73
e 63 74
e 63 75
e 63 76
e 63 82
e 63 83
e 63 84
e 63 86
e 63 87
e 63 88
e 63 89
e 63 93
e 63 96
e 63 98
e 63 101
e 63 103
e 63 104
e 63 106
e 63 107
e 63 112
e 63 113
e 63 116
e 63 117
e 63 118
e 63 119
e 63 120
e 63 121
e 63 122
e 63 123
e 64 66
e 64 67
e 64 68
e 64 70
e 64 71
e 64 73
e 64 74
e 64 77
e 64 78
e 64 81
e 64 87
e 64 88
e 64 89
e 64 90
e 64 91
e 64 92
e 64 94
e 64 95
e 64 97
e 64 98
e 64 99
e 64 102
e 64 103
e 64 106
e 64 108
e 64 110
e 64 113
e 64 115
e 64 116
e 64 118
e 64 124
e 64 125
e 65 67
e 65 68
e 65 70
e 65 71
e 65 72
e 65 74
e 65 75
e 65 76
e 65 77
e 65 80
e 65 82
e 65 84
e 65 85
e 65 88
e 65 89
e 65 90
e 65 92
e 65 94
e 65 95
e 65 97
e 65 99
e 65 100
e 65 101
e 65 103
e 65 105
e 65 110
e 65 113
e 65 115
e 65 116
e 65 118
e 65 121
e 65 125
e 66 67
e 66 68
e 66 73
e 66 75
e 66 76
e 66 79
e 66 80
e 66 81
e 66 83
e 66 84
e 66 86
e 66 87
e 66 92
e 66 93
e 66 95
e 66 100
e 66 101
e 66 103
e 66 105
e 66 109
e 66 110
e 66 120
e 66 122
e 66 123
e 66 124
e 67 68
e 67 69
e 67 70
e 67 71
e 67 75
e 67 76
e 67 77
e 67 78
e 67 80
e 67 81
e 67 83
e 67 84
e 67 86
e 67 87
e 67 89
e 67 90
e 67 91
e 67 93
e 67 94
e 67 96
e 67 100
e 67 104
e 67 108
e 67 110
e 67 111
e 67 112
e 67 113
e 67 114
e 67 117
e 67 118
e 67 119
e 67 120
e 67 121
e 67 124
e 68 70
e 68 71
e 68 72
e 68 77
e 68 81
e 68 83
e 68 85
e 68 87
e 68 89
e 68 95
e 68 96
e 68 97
e 68 100
e 68 102
e 68 103
e 68 106
e 68 111
e 68 115
e 68 117
e 68 118
e 68 121
e 68 122
e 68 125
e 69 70
e 69 72
e 69 73
e 69 74
e 69 75
e 69 76
e 69 77
e 69 79
e 69 81
e 69 82
e 69 84
e 69 85
e 69 86
e 69 89
e 69 92
e 69 96
e 69 105
e 69 107
e 69 108
e 69 110
e 69 111
e 69 114
e 69 115
e 69 116
e 69 117
e 69 119
e 69 120
e 69 121
e 69 122
e 69 124
e 69 125
e 70 71
e 70 72
e 70 73
e 70 74
e 70 75
e 70 76
e 70 79
e 70 80
e 70 82
e 70 83
e 70 89
e 70 95
e 70 97
e 70 101
e 70 103
e 70 104
e 70 106
e 70 107
e 70 109
e 70 110
e 70 111
e 70 112
e 70 116
e 70 117
e 70 119
e 70 121
e 70 123
e 70 124
e 70 125
e 71 73
e 71 74
e 71 76
e 71 78
e 71 79
e 71 80
e 71 83
e 71 87
e 71 90
e 71 91
e 71 93
e 71 95
e 71 97
e 71 99
e 71 101
e 71 104
e 71 105
e 71 106
e 71 108
e 71 110
e 71 111
e 71 115
e 71 116
e 71 117
e 71 118
e 71 119
e 71 122
e 71 123
e 71 124
e 72 73
e 72 74
e 72 76
e 72 78
e 72 79
e 72 81
e 72 85
e 72 87
e 72 88
e 72 90
e 72 92
e 72 93
e 72 96
e 72 97
e 72 98
e 72 100
e 72 101
e 72 102
e 72 106
e 72 107
e 72 108
e 72 109
e 72 113
e 72 114
e 72 115
e 72 119
e 72 121
e 73 76
e 73 77
e 73 78
e 73 79
e 73 80
e 73 81
e 73 82
e 73 83
e 73 84
e 73 87
e 73 89
e 73 90
e 73 92
e 73 93
e 73 94
e 73 96
e 73 97
e 73 98
e 73 100
e 73 102
e 73 104
e 73 106
e 73 118
e 73 119
e 73 121
e 73 123
e 73 124
e 74 75
e 74 76
e 74 79
e 74 81
e 74 84
e 74 86
e 74 87
e 74 88
e 74 89
e 74 90
e 74 92
e 74 93
e 74 94
e 74 96
e 74 97
e 74 98
e 74 99
e 74 101
e 74 106
e 74 107
e 74 111
e 74 112
e 74 114
e 74 116
e 74 117
e 74 118
e 74 119
e 74 120
e 74 121
e 74 123
e 74 124
e 74 125
e 75 78
e 75 80
e 75 81
e 75 85
e 75 87
e 75 88
e 75 89
e 75 90
e 75 93
e 75 94
e 75 96
e 75 97
e 75 98
e 75 99
e 75 100
e 75 101
e 75 102
e 75 104
e 75 107
e 75 108
e 75 109
e 75 112
e 75 115
e 75 116
e 75 118
e 75 120
e 75 121
e 75 125
e 76 78
e 76 82
e 76 83
e 76 84
e 76 85
e 76 86
e 76 87
e 76 88
e 76 90
e 76 91
e 76 94
e 76 96
e 76 98
e 76 99
e 76 100
e 76 104
e 76 105
e 76 107
e 76 109
e 76 110
e 76 111
e 76 113
e 76 114
e 76 115
e 76 116
e 76 117
e 76 120
e 76 121
e 76 122
e 76 123
e 76 124
e 77 80
e 77 81
e 77 83
e 77 86
e 77 87
e 77 88
e 77 90
e 77 92
e 77 95
e 77 96
e 77 97
e 77 98
e 77 99
e 77 101
e 77 102
e 77 105
e 77 106
e 77 107
e 77 110
e 77 111
e 77 114
e 77 116
e 77 119
e 77 121
e 77 123
e 77 125
e 78 79
e 78 82
e 78 83
e 78 86
e 78 87
e 78 88
e 78 91
e 78 94
e 78 95
e 78 96
e 78 97
e 78 99
e 78 101
e 78 102
e 78 103
e 78 104
e 78 108
e 78 109
e 78 112
e 78 114
e 78 115
e 78 116
e 78 117
e 78 118
e 78 120
e 78 124
e 79 81
e 79 82
e 79 83
e 79 84
e 79 87
e 79 96
e 79 100
e 79 101
e 79 102
e 79 104
e 79 105
e 79 106
e 79 108
e 79 111
e 79 114
e 79 115
e 79 116
e 79 117
e 79 118
e 79 119
e 79 121
e 79 123
e 79 124
e 80 82
e 80 83
e 80 90
e 80 92
e 80 95
e 80 97
e 80 99
e 80 102
e 80 105
e 80 106
e 80 107
e 80 113
e 80 120
e 80 121
e 80 124
e 80 125
e 81 82
e 81 86
e 81 87
e 81 91
e 81 92
e 81 93
e 81 95
e 81 97
e 81 99
e 81 103
e 81 104
e 81 105
e 81 113
e 81 116
e 81 117
e 81 118
e 81 119
e 81 120
e 81 121
e 81 123
e 81 124
e 82 85
e 82 87
e 82 91
e 82 93
e 82 94
e 82 96
e 82 97
e 82 98
e 82 99
e 82 100
e 82 103
e 82 104
e 82 106
e 82 108
e 82 111
e 82 113
e 82 114
e 82 115
e 82 116
e 82 117
e 82 118
e 82 119
e 82 120
e 82 122
e 82 125
e 83 86
e 83 88
e 83 89
e 83 94
e 83 97
e 83 99
e 83 103
e 83 105
e 83 108
e 83 110
e 83 111
e 83 113
e 83 115
e 83 116
e 83 117
e 83 118
e 83 120
e 83 121
e 83 122
e 83 123
e 83 125
e 84 86
e 84 88
e 84 90
e 84 94
e 84 96
e 84 101
e 84 103
e 84 105
e 84 108
e 84 110
e 84 111
e 84 113
e 84 114
e 84 115
e 84 116
e 84 119
e 84 122
e 84 124
e 84 125
e 85 88
e 85 90
e 85 91
e 85 92
e 85 94
e 85 96
e 85 100
e 85 102
e 85 104
e 85 106
e 85 108
e 85 110
e 85 111
e 85 114
e 85 116
e 85 117
e 85 118
e 85 120
e 85 121
e 85 122
e 85 124
e 86 88
e 86 89
e 86 90
e 86 93
e 86 96
e 86 98
e 86 105
e 86 106
e 86 107
e 86 109
e 86 110
e 86 113
e 86 117
e 86 119
e 86 120
e 86 121
e 86 122
e 86 123
e 86 124
e 87 88
e 87 89
e 87 90
e 87 91
e 87 92
e 87 97
e 87 98
e 87 101
e 87 103
e 87 105
e 87 107
e 87 109
e 87 111
e 87 113
e 87 115
e 87 117
e 87 119
e 87 122
e 87 123
e 87 124
e 88 89
e 88 93
e 88 96
e 88 97
e 88 99
e 88 100
e 88 104
e 88 107
e 88 110
e 88 111
e 88 113
e 88 114
e 88 115
e 88 117
e 88 119
e 88 120
e 88 121
e 88 123
e 88 125
e 89 90
e 89 92
e 89 93
e 89 94
e 89 95
e 89 96
e 89 97
e 89 98
e 89 99
e 89 103
e 89 105
e 89 107
e 89 109
e 89 110
e 89 111
e 89 114
e 89 115
e 89 118
e 89 120
e 89 121
e 89 122
e 89 124
e 90 92
e 90 95
e 90 97
e 90 98
e 90 100
e 90 101
e 90 102
e 90 103
e 90 105
e 90 107
e 90 109
e 90 110
e 90 112
e 90 113
e 90 115
e 90 118
e 91 92
e 91 95
e 91 97
e 91 98
e 91 99
e 91 102
e 91 103
e 91 106
e 91 108
e 91 109
e 91 112
e 91 113
e 91 114
e 91 116
e 91 119
e 91 120
e 91 121
e 91 125
e 92 95
e 92 97
e 92 99
e 92 106
e 92 107
e 92 108
e 92 110
e 92 112
e 92 114
e 92 115
e 92 116
e 92 117
e 92 120
e 92 125
e 93 94
e 93 99
e 93 101
e 93 104
e 93 107
e 93 108
e 93 111
e 93 112
e 93 114
e 93 117
e 93 119
e 93 121
e 93 124
e 94 96
e 94 98
e 94 99
e 94 100
e 94 105
e 94 109
e 94 110
e 94 112
e 94 114
e 94 115
e 94 118
e 94 119
e 94 120
e 94 122
e 94 125
e 95 96
e 95 97
e 95 98
e 95 99
e 95 100
e 95 101
e 95 103
e 95 104
e 95 105
e 95 106
e 95 108
e 95 110
e 95 111
e 95 112
e 95 113
e 95 117
e 95 119
e 95 123
e 96 97
e 96 99
e 96 101
e 96 104
e 96 105
e 96 109
e 96 112
e 96 114
e 96 115
e 96 116
e 96 117
e 96 118
e 96 122
e 96 123
e 96 125
e 97 98
e 97 100
e 97 104
e 97 105
e 97 107
e 97 108
e 97 109
e 97 111
e 97 114
e 97 116
e 97 118
e 97 119
e 97 120
e 97 122
e 97 124
e 97 125
e 98 99
e 98 101
e 98 102
e 98 105
e 98 107
e 98 112
e 98 113
e 98 114
e 98 117
e 98 119
e 98 120
e 98 125
e 99 100
e 99 101
e 99 102
e 99 104
e 99 106
e 99 108
e 99 110
e 99 111
e 99 112
e 99 113
e 99 114
e 99 115
e 99 116
e 99 119
e 99 120
e 99 123
e 100 104
e 100 105
e 100 107
e 100 109
e 100 112
e 100 114
e 100 116
e 100 117
e 100 121
e 100 122
e 100 124
e 100 125
e 101 102
e 101 104
e 101 107
e 101 109
e 101 115
e 101 116
e 101 118
e 101 120
e 101 122
e 101 123
e 101 124
e 102 105
e 102 107
e 102 108
e 102 111
e 102 112
e 102 115
e 102 116
e 102 117
e 102 118
e 102 121
e 102 124
e 102 125
e 103 105
e 103 111
e 103 113
e 103 116
e 103 117
e 103 121
e 103 124
e 103 125
e 104 108
e 104 109
e 104 110
e 104 114
e 104 115
e 104 117
e 104 120
e 104 122
e 104 125
e 105 108
e 105 111
e 105 112
e 105 114
e 105 115
e 105 116
e 105 117
e 105 118
e 105 119
e 105 121
e 105 122
e 105 123
e 105 125
e 106 107
e 106 109
e 106 110
e 106 113
e 106 117
e 106 118
e 106 120
e 107 111
e 107 112
e 107 113
e 107 114
e 107 116
e 107 117
e 107 119
e 107 120
e 107 121
e 107 122
e 107 123
e 108 109
e 108 113
e 108 114
e 108 115
e 108 117
e 108 120
e 108 122
e 109 110
e 109 112
e 109 113
e 109 117
e 109 118
e 109 119
e 109 120
e 109 125
e 110 112
e 110 116
e 110 117
e 110 118
e 110 119
e 110 121
e 110 122
e 110 124
e 110 125
e 111 112
e 111 113
e 111 117
e 111 118
e 111 119
e 111 121
e 111 122
e 111 123
e 112 113
e 112 114
e 112 115
e 112 118
e 112 119
e 112 121
e 112 123
e 112 124
e 112 125
e 113 114
e 113 117
e 113 121
e 113 123
e 114 115
e 114 116
e 114 117
e 114 119
e 115 118
e 115 119
e 115 121
e 115 125
e 116 117
e 116 118
e 116 120
e 116 122
e 116 125
e 117 118
e 117 120
e 117 124
e 118 119
e 118 121
e 119 120
e 119 121
e 119 122
e 119 123
e 120 122
e 120 125
e 121 124
e 121 125
e 122 123
e 123 125
e 124 125
n 1 3953913
n 2 2796456
n 3 2537143
n 4 2582735
n 5 1902130
n 6 2783558
n 7 2294111
n 8 1995265
n 9 1760008
n 10 3110941
n 11 2207573
n 12 2153377
n 13 2412847
n 14 2520489
n 15 1450436
n 16 1456207
n 17 2592093
n 18 3219148
n 19 2475540
n 20 2241644
n 21 3029907
n 22 1654704
n 23 2544877
n 24 3423975
n 25 1495569
n 26 3278778
n 27 2140743
n 28 2359875
n 29 745269
n 30 2254295
n 31 1353974
n 32 1041694
n 33 3163305
n 34 1773721
n 35 2574316
n 36 1945161
n 37 2015971
n 38 2015206
n 39 1573382
n 40 2864009
n 41 1902130
n 42 1381673
n 43 2104386
n 44 2336206
n 45 2506616
n 46 3452430
n 47 2885591
n 48 1548841
n 49 2419041
n 50 1705475
n 51 2856641
n 52 1836381
n 53 1594289
n 54 3042495
n 55 1621530
n 56 2001623
n 57 1799755
n 58 2796456
n 59 2460219
n 60 2191156
n 61 2590906
n 62 1650994
n 63 922351
n 64 2099401
n 65 2590906
n 66 1658847
n 67 2009424
n 68 2580409
n 69 2123260
n 70 1529063
n 71 1287198
n 72 2652990
n 73 2141719
n 74 1352539
n 75 2078237
n 76 626754
n 77 2443094
n 78 2481943
n 79 2027764
n 80 1938576
n 81 1156173
n 82 2103479
n 83 2662535
n 84 3078486
n 85 2131465
n 86 1727682
n 87 2207695
n 88 779693
n 89 1156173
n 90 1162369
n 91 2531164
n 92 2294111
n 93 2516830
n 94 2255352
n 95 2063449
n 96 2050323
n 97 1890904
n 98 2419041
n 99 1495569
n 100 4338083
n 101 2445513
n 102 1403302
n 103 3848815
n 104 2123260
n 105 2099401
n 106 2593345
n 107 365959
n 108 1736131
n 109 2009424
n 110 2022685
n 111 2345453
n 112 2242814
n 113 2443094
n 114 3066218
n 115 1573604
n 116 2342719
n 117 1381673
n 118 2311412
n 119 1658847
n 120 2855910
n 121 2140743
n 122 1327559
n 123 3234151
n 124 2254295
n 125 1411236
